qbf_easy_train/easy_1847_SAT.qdimacs
p cnf 36 104
a 16 14 23 0
e 1 2 3 4 5 6 7 8 9 10 11 12 13 15 17 18 19 20 21 22 24 25 26 27 28 29 30 31 32 33 34 35 36 0
-1 2 -3 0
1 -2 -3 0
-1 -2 3 0
1 2 3 0
-4 3 0
-4 -3 0
-5 4 0
-5 3 0
-4 -3 5 0
6 -7 -8 0
-6 7 -8 0
6 7 8 0
-6 -7 8 0
-9 3 0
-9 -8 0
-3 8 9 0
-10 11 -12 0
10 -11 -12 0
-10 -11 12 0
10 11 12 0
13 -9 0
13 12 0
9 -12 -13 0
-14 8 0
-14 -6 0
-8 6 14 0
10 14 -15 0
-10 -14 -15 0
10 -14 15 0
-10 14 15 0
13 15 -16 0
-13 -15 -16 0
13 -15 16 0
-13 15 16 0
-17 -5 0
-17 -16 0
5 16 17 0
-18 -2 0
-18 6 0
2 -6 18 0
-19 -18 0
-19 4 0
18 -4 19 0
2 -1 -20 0
-2 1 -20 0
2 1 20 0
-2 -1 20 0
20 -1 -21 0
-20 1 -21 0
20 1 21 0
-20 -1 21 0
-19 21 -22 0
19 -21 -22 0
-19 -21 22 0
19 21 22 0
24 23 0
24 -3 0
-23 3 -24 0
-8 -25 -26 0
8 25 -26 0
-8 25 26 0
8 -25 26 0
-24 -26 -27 0
24 26 -27 0
-24 26 27 0
24 -26 27 0
-1 -4 -28 0
1 4 -28 0
-1 4 28 0
1 -4 28 0
29 -27 0
29 28 0
27 -28 -29 0
30 -3 0
30 1 0
3 -1 -30 0
31 30 0
31 -30 0
-18 -3 -32 0
18 3 -32 0
-18 3 32 0
18 -3 32 0
33 31 0
33 -32 0
-31 32 -33 0
34 -29 0
34 33 0
29 -33 -34 0
-35 -22 0
-35 34 0
22 -34 35 0
36 -17 0
36 -35 0
17 35 -36 0
24 9 -3 27 7 -34 0
-14 -16 15 0
-28 -4 6 -18 -19 -24 0
32 13 17 22 0
-22 5 -16 -30 -23 0
20 24 -4 -8 11 0
-1 -36 -12 -15 25 -35 0
7 29 24 13 3 4 19 -14 0
18 11 33 -25 10 0
36 0
