sat_easy_train/easy_1847_SAT.dimacs
p cnf 107 349
5 -3 0
5 4 0
3 -4 -5 0
-6 2 0
-6 -5 0
-2 5 6 0
1 -6 -7 0
-1 6 -7 0
1 6 7 0
-1 -6 7 0
10 -8 0
10 9 0
8 -9 -10 0
-7 -10 -11 0
7 10 -11 0
-7 10 11 0
7 -10 11 0
-13 -11 0
-13 12 0
11 -12 13 0
-12 9 -14 0
12 -9 -14 0
-12 -9 14 0
12 9 14 0
-16 -14 0
-16 -15 0
14 15 16 0
16 -5 -17 0
-16 5 -17 0
16 5 17 0
-16 -5 17 0
-17 3 -18 0
17 -3 -18 0
-17 -3 18 0
17 3 18 0
-17 20 -21 0
17 -20 -21 0
-17 -20 21 0
17 20 21 0
22 -17 0
22 21 0
17 -21 -22 0
23 19 0
23 -22 0
-19 22 -23 0
-24 18 0
-24 -23 0
-18 23 24 0
-26 25 0
-26 -16 0
-25 16 26 0
29 -27 0
29 -28 0
27 28 -29 0
30 -5 0
30 7 0
5 -7 -30 0
-31 -29 0
-31 30 0
29 -30 31 0
-32 -20 0
-32 -31 0
20 31 32 0
33 26 0
33 32 0
-26 -32 -33 0
34 -24 0
34 33 0
24 -33 -34 0
-35 13 0
-35 -34 0
-13 34 35 0
-37 -3 0
-37 36 0
3 -36 37 0
4 -37 -38 0
-4 37 -38 0
4 37 38 0
-4 -37 38 0
39 -38 0
39 -27 0
38 27 -39 0
-40 -10 0
-40 -37 0
10 37 40 0
28 40 -41 0
-28 -40 -41 0
28 -40 41 0
-28 40 41 0
-42 -39 0
-42 -41 0
39 41 42 0
-43 35 0
-43 -42 0
-35 42 43 0
-27 -20 -44 0
27 20 -44 0
-27 20 44 0
27 -20 44 0
-45 6 0
-45 -44 0
-6 44 45 0
46 10 0
46 16 0
-10 -16 -46 0
-47 5 0
-47 1 0
-5 -1 47 0
16 47 -48 0
-16 -47 -48 0
16 -47 48 0
-16 47 48 0
-49 -46 0
-49 -48 0
46 48 49 0
-45 -49 -50 0
45 49 -50 0
-45 49 50 0
45 -49 50 0
28 4 -51 0
-28 -4 -51 0
28 -4 51 0
-28 4 51 0
12 8 -52 0
-12 -8 -52 0
12 -8 52 0
-12 8 52 0
52 -36 -53 0
-52 36 -53 0
52 36 53 0
-52 -36 53 0
8 -53 -54 0
-8 53 -54 0
8 53 54 0
-8 -53 54 0
55 51 0
55 -54 0
-51 54 -55 0
56 -47 0
56 55 0
47 -55 -56 0
37 -30 -57 0
-37 30 -57 0
37 30 57 0
-37 -30 57 0
-58 20 0
-58 -26 0
-20 26 58 0
59 58 0
59 1 0
-58 -1 -59 0
-59 -60 -61 0
59 60 -61 0
-59 60 61 0
59 -60 61 0
-62 -57 0
-62 61 0
57 -61 62 0
-56 62 -63 0
56 -62 -63 0
-56 -62 63 0
56 62 63 0
-50 -63 -64 0
50 63 -64 0
-50 63 64 0
50 -63 64 0
65 7 0
65 -53 0
-7 53 -65 0
-36 -9 -66 0
36 9 -66 0
-36 9 66 0
36 -9 66 0
11 66 -67 0
-11 -66 -67 0
11 -66 67 0
-11 66 67 0
-68 -65 0
-68 67 0
65 -67 68 0
-69 64 0
-69 68 0
-64 -68 69 0
-70 43 0
-70 -69 0
-43 69 70 0
71 58 0
71 -14 0
-58 14 -71 0
-73 -72 0
-73 55 0
72 -55 73 0
74 20 0
74 -36 0
-20 36 -74 0
75 -74 0
75 74 0
-76 73 0
-76 -75 0
-73 75 76 0
28 5 -77 0
-28 -5 -77 0
28 -5 77 0
-28 5 77 0
78 76 0
78 -77 0
-76 77 -78 0
-3 -40 -79 0
3 40 -79 0
-3 40 79 0
3 -40 79 0
22 79 -80 0
-22 -79 -80 0
22 -79 80 0
-22 79 80 0
-80 -30 -81 0
80 30 -81 0
-80 30 81 0
80 -30 81 0
82 26 0
82 -51 0
-26 51 -82 0
-83 -5 0
-83 82 0
5 -82 83 0
84 81 0
84 83 0
-81 -83 -84 0
84 16 -85 0
-84 -16 -85 0
84 -16 85 0
-84 16 85 0
86 -4 0
86 -85 0
4 85 -86 0
-87 78 0
-87 86 0
-78 -86 87 0
88 71 0
88 87 0
-71 -87 -88 0
89 -21 0
89 20 0
21 -20 -89 0
-90 5 0
-90 80 0
-5 -80 90 0
91 90 0
91 -48 0
-90 48 -91 0
-89 -91 -92 0
89 91 -92 0
-89 91 92 0
89 -91 92 0
93 -88 0
93 92 0
88 -92 -93 0
-7 94 0
7 94 0
95 20 0
95 -44 0
-20 44 -95 0
-94 -95 -96 0
94 95 -96 0
-94 95 96 0
94 -95 96 0
97 31 0
97 -31 0
98 1 0
98 47 0
-1 -47 -98 0
18 -98 -99 0
-18 98 -99 0
18 98 99 0
-18 -98 99 0
-100 -97 0
-100 -99 0
97 99 100 0
60 53 -101 0
-60 -53 -101 0
60 -53 101 0
-60 53 101 0
-102 100 0
-102 -101 0
-100 101 102 0
29 74 -103 0
-29 -74 -103 0
29 -74 103 0
-29 74 103 0
102 103 -104 0
-102 -103 -104 0
102 -103 104 0
-102 103 104 0
105 -96 0
105 -104 0
96 104 -105 0
106 -93 0
106 -105 0
93 105 -106 0
70 106 -107 0
-70 -106 -107 0
70 -106 107 0
-70 106 107 0
100 55 0
-103 -29 14 -23 -17 0
-71 -101 54 -97 34 0
-102 -44 -9 -43 95 98 0
-46 26 0
-64 89 -102 27 96 107 0
-54 -94 0
-22 -57 87 -77 4 0
55 -77 0
-58 -80 -9 -14 0
32 28 -35 77 15 3 0
78 -66 -33 54 0
103 -85 -88 0
61 -70 -7 -84 56 0
19 82 0
101 57 4 104 -67 0
7 63 8 0
-62 60 30 102 -36 0
-25 33 67 -30 -26 52 0
-54 -94 0
-7 20 10 0
-73 -59 -32 -83 0
-45 -98 0
-94 105 56 0
65 26 -44 95 -51 0
-76 105 73 -44 0
-17 49 -98 -38 -69 0
25 59 87 52 0
-33 22 -57 65 0
92 88 4 0
39 -77 -1 33 0
-32 -99 -72 77 -64 0
-38 31 39 -84 107 0
-83 -45 29 -3 0
71 -27 -14 -24 0
-75 -106 -74 65 64 0
-94 100 27 41 0
-65 -69 8 0
30 34 -24 60 -46 -68 0
-20 35 -23 102 -31 0
83 87 0
-86 -13 -49 101 99 0
16 84 59 -24 21 0
-82 102 40 -73 7 -25 0
16 -76 -61 -52 -11 -6 0
107 0
